
  12    4
  10   10   10   10

   0   0   0   0   0   4 2 3 5 11 
   2  10  10  10  10   4 10 9 8 4 
   4  10  10  10  10   3 9 8 6 
   4  10  10  10  10   2 7 6 
   6  10  10  10  10   2 7 6 
   6  10  10  10  10   1 12
  10  10  10  10  10   1 12
   5  10  10  10  10   1 12
   3  10  10  10  10   1 12
   7  10  10  10  10   1 12
   8  10  10  10  10   1 12
   0   0   0   0   0   0 
